[[56724914,219390769,553458491,611452932,767660199,815867043,974083809],[62622238,231779694,407585305,715804572,773111881,833523676,972501576],[63530088,185489096,417445747,719925630,791760900,835595245,957567427],[74930784,203995979,341111629,734837444,796948325,864079663,954481195],[160545433,319428814,476691087,488199413,515111873,571811436,576066437,635325627],[273881,314282302,403857021,541634076,579491364,639442135,693183808,810987938],[5969467,176750242,437313477,556848802,590253108,645885730,749375247,800199097],[10309146,259491019,327640335,516438491,632147771,673570427,759585529,797645767],[46657026,260479787,388155241,487195041,528065248,692231696,766084831,797429306],[90024170,205437284,267058550,357915090,440342565,749112129,899683579,949970768],[101185644,205833528,268182749,440670104,527210532,589635634,903722549,944605364],[121449557,207659617,273437577,391796692,451293411,676860803,907889722,938864215],[154649474,212854333,297688535,399513040,464273198,605239550,913442868,926509927]]